Route 1: 12 176 135 133 162 75 112 165 159 70 56 180 179 22 39 23 37 3 7 95 51 122 174
Route 2: 28 16 77 71 142 149 99 85 186 19 154 181 62 33 41 125 188 54 155 190 141 83 18
Route 3: 123 61 117 80 156 8 34 108 163 21 66 115 10 97 4 91 43 63 60 92 114 24
Route 4: 94 76 116 145 146 136 47 93 82 36 90 105 40 31 13 25 148 151 79 98 144 184
Route 5: 50 118 68 167 158 52 160 139 143 86 81 170 26 29 59 44 113 11 74 96 35 129 164 5 103
Route 6: 132 119 100 46 32 185 183 173 64 58 30 38 20 189 106
Route 7: 107 120 27 171 17 15 157 109 104 130 134 73 140 150 161 2 166 89 45 128 121 169 111 65 67 172 14 84
Route 8: 137 168 124 178 72 53 102 48 6 177 126 87 78 138 147 187 88 153 42 182 127 55 152 175 49 131 57 9 101 69 110
Cost 18951.90
